nN = 6;
nR = 15;
nH = 1;

a = [[8, 18, 7, 15, 11, 21, 11, 9, 6, 20, 23, 23, 15, 25, 23], [17, 7, 18, 16, 8, 9, 13, 14, 8, 16, 20, 25, 9, 11, 12], [18, 5, 18, 24, 9, 24, 20, 5, 7, 11, 7, 18, 10, 25, 13], [17, 22, 19, 18, 20, 24, 19, 21, 18, 13, 10, 6, 20, 23, 18], [10, 7, 21, 9, 9, 17, 10, 23, 23, 9, 24, 15, 7, 21, 15], [8, 17, 24, 14, 7, 12, 17, 20, 15, 18, 22, 20, 6, 16, 16]];
c = [[[0, 0, 0, 0, 0, 0, 0, 0, 0, 0, 0, 0, 0, 0, 0], [31, 43, 48, 31, 40, 40, 38, 38, 43, 39, 44, 33, 38, 39, 30], [31, 39, 34, 49, 33, 31, 31, 46, 38, 34, 41, 35, 45, 37, 36], [41, 30, 44, 45, 50, 46, 44, 30, 45, 38, 35, 46, 32, 30, 50], [43, 46, 33, 36, 41, 36, 46, 34, 46, 37, 46, 44, 44, 36, 32], [47, 33, 49, 38, 49, 46, 40, 31, 45, 36, 36, 40, 50, 30, 47]], [[0, 0, 0, 0, 0, 0, 0, 0, 0, 0, 0, 0, 0, 0, 0], [0, 0, 0, 0, 0, 0, 0, 0, 0, 0, 0, 0, 0, 0, 0], [33, 34, 49, 41, 42, 47, 34, 31, 45, 31, 50, 45, 38, 38, 40], [32, 38, 32, 41, 45, 42, 38, 35, 46, 38, 39, 37, 49, 31, 50], [41, 39, 38, 48, 38, 36, 45, 40, 41, 31, 49, 41, 44, 40, 49], [40, 47, 38, 43, 45, 45, 41, 35, 30, 39, 38, 33, 48, 31, 30]], [[0, 0, 0, 0, 0, 0, 0, 0, 0, 0, 0, 0, 0, 0, 0], [0, 0, 0, 0, 0, 0, 0, 0, 0, 0, 0, 0, 0, 0, 0], [0, 0, 0, 0, 0, 0, 0, 0, 0, 0, 0, 0, 0, 0, 0], [34, 47, 41, 41, 32, 40, 32, 30, 33, 43, 50, 48, 31, 43, 49], [36, 33, 47, 31, 31, 43, 38, 44, 40, 33, 47, 35, 44, 36, 49], [32, 36, 34, 45, 31, 31, 44, 46, 42, 34, 33, 35, 45, 36, 46]], [[0, 0, 0, 0, 0, 0, 0, 0, 0, 0, 0, 0, 0, 0, 0], [0, 0, 0, 0, 0, 0, 0, 0, 0, 0, 0, 0, 0, 0, 0], [0, 0, 0, 0, 0, 0, 0, 0, 0, 0, 0, 0, 0, 0, 0], [0, 0, 0, 0, 0, 0, 0, 0, 0, 0, 0, 0, 0, 0, 0], [31, 50, 45, 31, 36, 46, 30, 36, 42, 45, 50, 36, 33, 38, 39], [34, 50, 45, 47, 36, 38, 36, 45, 41, 39, 39, 31, 31, 33, 41]], [[0, 0, 0, 0, 0, 0, 0, 0, 0, 0, 0, 0, 0, 0, 0], [0, 0, 0, 0, 0, 0, 0, 0, 0, 0, 0, 0, 0, 0, 0], [0, 0, 0, 0, 0, 0, 0, 0, 0, 0, 0, 0, 0, 0, 0], [0, 0, 0, 0, 0, 0, 0, 0, 0, 0, 0, 0, 0, 0, 0], [0, 0, 0, 0, 0, 0, 0, 0, 0, 0, 0, 0, 0, 0, 0], [45, 39, 36, 48, 38, 46, 30, 36, 48, 43, 40, 36, 34, 43, 34]], [[0, 0, 0, 0, 0, 0, 0, 0, 0, 0, 0, 0, 0, 0, 0], [0, 0, 0, 0, 0, 0, 0, 0, 0, 0, 0, 0, 0, 0, 0], [0, 0, 0, 0, 0, 0, 0, 0, 0, 0, 0, 0, 0, 0, 0], [0, 0, 0, 0, 0, 0, 0, 0, 0, 0, 0, 0, 0, 0, 0], [0, 0, 0, 0, 0, 0, 0, 0, 0, 0, 0, 0, 0, 0, 0], [0, 0, 0, 0, 0, 0, 0, 0, 0, 0, 0, 0, 0, 0, 0]]];
Q = [[34], [31], [32], [29], [32], [36]];

q = [[[24], [11], [23], [24], [21], [13], [16], [12], [18], [15], [22], [14], [18], [14], [7]], [[18], [15], [11], [16], [25], [20], [7], [25], [21], [15], [5], [17], [18], [10], [9]], [[15], [9], [17], [6], [10], [25], [20], [8], [25], [22], [8], [8], [22], [24], [19]], [[5], [25], [5], [11], [9], [17], [14], [21], [25], [7], [18], [11], [14], [21], [14]], [[13], [16], [20], [15], [11], [20], [17], [23], [6], [13], [20], [18], [24], [16], [6]], [[5], [23], [12], [23], [12], [19], [13], [20], [23], [23], [23], [12], [19], [19], [17]]];
p = [0.78, 0.01, 0.37, 0.23, 0.82, 0.94, 0.14, 0.06, 0.23, 0.9, 0.22, 0.43, 0.66, 0.59, 0.98];
